GeneratedTests/Random_7/Random_7_20.tsp
NAME: Random_7_20
TYPE: TSP
DIMENSION: 7
EDGE_WEIGHT_TYPE: EUC_2D
NODE_COORD_SECTION
1 11.64541 14.386147
2 13.741661 16.898579
3 0.23168921 11.542675
4 6.985345 19.577682
5 15.473197 4.5656233
6 3.1629546 15.8605
7 15.5293045 12.953007
EOF
