GeneratedTests/Random_7/Random_7_20.txt
NAME: Random_7_20
TYPE: TSP
DIMENSION: 7
EDGE_WEIGHT_TYPE: EUC_2D
NODE_COORD_SECTION
1 13.478052 16.532045
2 4.190612 0.042894423
3 6.7880297 2.5473347
4 19.192108 1.5260434
5 2.0829837 11.799049
6 2.0400755 0.66048074
7 20.963564 9.777239
EOF
